Traveling Salesman Problem/TSP_generados/Aleatorio1621103329_10.tsp
NAME: Aleatorio1621103329_10.tsp
COMMENT: Randomly generated scenario
TYPE: TSP
DIMENSION: 10
EDGE_WEIGHT_TYPE: ATT
NODE_COORD_SECTION
1 21.9 20.63
2 25.46 13.36
3 10.94 10.75
4 30.51 48.88
5 13.56 18.36
6 9.17 16.9
7 10.03 39.31
8 15.52 39.26
9 27.69 38.12
10 16.5 40.35
