Traveling Salesman Problem/TSP_generados/Aleatorio1621103329_10.opt.tour
NAME: Aleatorio1621103329_10.opt.tour
COMMENT: Optimal solution for Aleatorio1621103329_10 (108.02426508636648)
TYPE: TOUR
DIMENSION: 10
TOUR_SECTION
1 2 3 6 5 7 8 10 4 9
-1
EOF
